\ENCODING=ISO-8859-1
\Problem name: 

Minimize
 obj: W
Subject To
 c1:  x1_1 + x1_2 + x1_3  = 1
 c2:  x2_1 + x2_2 + x2_3  = 1
 c3:  x3_1 + x3_2 + x3_3  = 1
 c4:  y1 + y2 + y3  = 1
 c5:  - x1_1 + y1 >= 0
 c6:  - x1_2 + y2 >= 0
 c7:  - x1_3 + y3 >= 0
 c8:  - x2_1 + y1 >= 0
 c9:  - x2_2 + y2 >= 0
 c10: - x2_3 + y3 >= 0
 c11: - x3_1 + y1 >= 0
 c12: - x3_2 + y2 >= 0
 c13: - x3_3 + y3 >= 0
 c14: - W + 8.85641248381345 x1_1 + 6.05519389821054 x1_2
      + 3.08572424111758 x1_3 <= 0
 c15: - W + 1.90735589521607 x2_1 + 8.95970762362768 x2_2
      + 2.85556367896643 x2_3 <= 0
 c16: - W + 2.07578231463932 x3_1 + 6.78925956930577 x3_2
      + 1.38188220066576 x3_3 <= 0
Bounds
 0 <= x1_1 <= 1
 0 <= x1_2 <= 1
 0 <= x1_3 <= 1
 0 <= x2_1 <= 1
 0 <= x2_2 <= 1
 0 <= x2_3 <= 1
 0 <= x3_1 <= 1
 0 <= x3_2 <= 1
 0 <= x3_3 <= 1
 0 <= y1 <= 1
 0 <= y2 <= 1
 0 <= y3 <= 1
Binaries
 x1_1  x1_2  x1_3  x2_1  x2_2  x2_3  x3_1  x3_2  x3_3  y1  y2  y3 
End
